
Gurobi 7.0.2 (linux64) logging started Sun Dec 22 11:40:52 2019


Gurobi 7.0.2 (linux64) logging started Sun Dec 22 11:43:48 2019


Gurobi 7.0.2 (linux64) logging started Sun Dec 22 11:55:09 2019


Gurobi 7.0.2 (linux64) logging started Sun Dec 22 12:12:04 2019


Gurobi 7.0.2 (linux64) logging started Sun Dec 22 15:34:53 2019


Gurobi 7.0.2 (linux64) logging started Sun Dec 22 15:36:20 2019


Gurobi 7.0.2 (linux64) logging started Sun Dec 22 15:36:49 2019


Gurobi 7.0.2 (linux64) logging started Sun Dec 22 15:46:14 2019


Gurobi 7.0.2 (linux64) logging started Sun Dec 22 15:58:49 2019


Gurobi 7.0.2 (linux64) logging started Sun Dec 22 16:04:00 2019


Gurobi 7.0.2 (linux64) logging started Sun Dec 22 16:04:05 2019


Gurobi 7.0.2 (linux64) logging started Sun Dec 22 16:04:24 2019


Gurobi 7.0.2 (linux64) logging started Sun Dec 22 16:09:56 2019


Gurobi 7.0.2 (linux64) logging started Sun Dec 22 16:19:04 2019


Gurobi 7.0.2 (linux64) logging started Sun Dec 22 16:22:35 2019


Gurobi 7.0.2 (linux64) logging started Mon Dec 23 11:15:53 2019


Gurobi 7.0.2 (linux64) logging started Mon Dec 23 11:21:38 2019


Gurobi 7.0.2 (linux64) logging started Mon Dec 23 11:21:45 2019


Gurobi 7.0.2 (linux64) logging started Mon Dec 23 11:22:49 2019


Gurobi 7.0.2 (linux64) logging started Mon Dec 23 11:25:09 2019


Gurobi 7.0.2 (linux64) logging started Mon Dec 23 11:25:40 2019


Gurobi 7.0.2 (linux64) logging started Mon Dec 23 11:26:00 2019


Gurobi 7.0.2 (linux64) logging started Mon Dec 23 11:28:53 2019


Gurobi 7.0.2 (linux64) logging started Mon Dec 23 11:29:05 2019


Gurobi 7.0.2 (linux64) logging started Mon Dec 23 11:35:51 2019


Gurobi 7.0.2 (linux64) logging started Mon Dec 23 11:36:12 2019


Gurobi 7.0.2 (linux64) logging started Mon Dec 23 11:38:14 2019


Gurobi 7.0.2 (linux64) logging started Mon Dec 23 11:39:33 2019


Gurobi 7.0.2 (linux64) logging started Mon Dec 23 11:39:56 2019


Gurobi 7.0.2 (linux64) logging started Mon Dec 23 11:40:32 2019


Gurobi 7.0.2 (linux64) logging started Mon Dec 23 11:40:53 2019


Gurobi 7.0.2 (linux64) logging started Mon Dec 23 11:42:49 2019


Gurobi 7.0.2 (linux64) logging started Mon Dec 23 11:44:53 2019


Gurobi 7.0.2 (linux64) logging started Mon Dec 23 11:45:20 2019


Gurobi 7.0.2 (linux64) logging started Mon Dec 23 11:45:33 2019


Gurobi 7.0.2 (linux64) logging started Mon Dec 23 11:47:27 2019


Gurobi 7.0.2 (linux64) logging started Mon Dec 23 11:47:46 2019


Gurobi 7.0.2 (linux64) logging started Mon Dec 23 11:47:59 2019


Gurobi 7.0.2 (linux64) logging started Mon Dec 23 11:50:57 2019


Gurobi 7.0.2 (linux64) logging started Mon Dec 23 11:51:14 2019


Gurobi 7.0.2 (linux64) logging started Mon Dec 23 11:53:31 2019


Gurobi 7.0.2 (linux64) logging started Mon Dec 23 11:54:49 2019


Gurobi 7.0.2 (linux64) logging started Mon Dec 23 11:58:34 2019


Gurobi 7.0.2 (linux64) logging started Mon Dec 23 11:59:10 2019


Gurobi 7.0.2 (linux64) logging started Mon Dec 23 12:00:07 2019


Gurobi 7.0.2 (linux64) logging started Mon Dec 23 12:00:18 2019


Gurobi 7.0.2 (linux64) logging started Mon Dec 23 12:01:16 2019


Gurobi 7.0.2 (linux64) logging started Mon Dec 23 12:02:54 2019


Gurobi 7.0.2 (linux64) logging started Mon Dec 23 12:03:14 2019


Gurobi 7.0.2 (linux64) logging started Mon Dec 23 12:03:31 2019


Gurobi 7.0.2 (linux64) logging started Mon Dec 23 12:04:26 2019


Gurobi 7.0.2 (linux64) logging started Mon Dec 23 12:05:34 2019


Gurobi 7.0.2 (linux64) logging started Mon Dec 23 12:06:31 2019


Gurobi 7.0.2 (linux64) logging started Mon Dec 23 12:13:47 2019


Gurobi 7.0.2 (linux64) logging started Mon Dec 23 12:14:48 2019


Gurobi 7.0.2 (linux64) logging started Mon Dec 23 14:56:03 2019


Gurobi 7.0.2 (linux64) logging started Mon Dec 23 15:00:10 2019


Gurobi 7.0.2 (linux64) logging started Mon Dec 23 15:09:08 2019


Gurobi 7.0.2 (linux64) logging started Mon Dec 23 15:38:47 2019


Gurobi 7.0.2 (linux64) logging started Mon Dec 23 15:46:49 2019


Gurobi 7.0.2 (linux64) logging started Mon Dec 23 15:49:44 2019


Gurobi 7.0.2 (linux64) logging started Mon Dec 23 15:50:30 2019


Gurobi 7.0.2 (linux64) logging started Mon Dec 23 15:50:47 2019


Gurobi 7.0.2 (linux64) logging started Mon Dec 23 15:52:09 2019


Gurobi 7.0.2 (linux64) logging started Mon Dec 23 15:57:45 2019


Gurobi 7.0.2 (linux64) logging started Mon Dec 23 16:00:00 2019


Gurobi 7.0.2 (linux64) logging started Mon Dec 23 16:00:11 2019


Gurobi 7.0.2 (linux64) logging started Mon Dec 23 16:00:48 2019


Gurobi 7.0.2 (linux64) logging started Mon Dec 23 16:04:00 2019


Gurobi 7.0.2 (linux64) logging started Mon Dec 23 16:07:10 2019


Gurobi 7.0.2 (linux64) logging started Mon Dec 23 16:08:52 2019


Gurobi 7.0.2 (linux64) logging started Mon Dec 23 16:09:54 2019


Gurobi 7.0.2 (linux64) logging started Mon Dec 23 16:11:35 2019


Gurobi 7.0.2 (linux64) logging started Mon Dec 23 16:15:32 2019


Gurobi 7.0.2 (linux64) logging started Mon Dec 23 16:16:18 2019


Gurobi 7.0.2 (linux64) logging started Mon Dec 23 16:18:05 2019


Gurobi 7.0.2 (linux64) logging started Mon Dec 23 16:18:16 2019


Gurobi 7.0.2 (linux64) logging started Mon Dec 23 16:40:01 2019


Gurobi 7.0.2 (linux64) logging started Mon Dec 23 16:44:51 2019


Gurobi 7.0.2 (linux64) logging started Mon Dec 23 17:04:40 2019


Gurobi 7.0.2 (linux64) logging started Mon Dec 23 17:36:20 2019


Gurobi 7.0.2 (linux64) logging started Mon Dec 23 17:39:14 2019


Gurobi 7.0.2 (linux64) logging started Mon Dec 23 17:40:01 2019


Gurobi 7.0.2 (linux64) logging started Mon Dec 23 17:41:32 2019


Gurobi 7.0.2 (linux64) logging started Mon Dec 23 17:42:23 2019


Gurobi 7.0.2 (linux64) logging started Mon Dec 23 17:48:59 2019


Gurobi 7.0.2 (linux64) logging started Mon Dec 23 17:53:31 2019


Gurobi 7.0.2 (linux64) logging started Mon Dec 23 18:04:34 2019


Gurobi 7.0.2 (linux64) logging started Mon Dec 23 18:07:43 2019


Gurobi 7.0.2 (linux64) logging started Wed Jan  1 09:19:22 2020


Gurobi 7.0.2 (linux64) logging started Wed Jan  1 09:21:56 2020


Gurobi 7.0.2 (linux64) logging started Wed Jan  1 09:24:17 2020


Gurobi 7.0.2 (linux64) logging started Wed Jan  1 09:24:30 2020


Gurobi 7.0.2 (linux64) logging started Wed Jan  1 09:24:38 2020


Gurobi 7.0.2 (linux64) logging started Wed Jan  1 09:24:54 2020


Gurobi 7.0.2 (linux64) logging started Wed Jan  1 09:25:11 2020


Gurobi 7.0.2 (linux64) logging started Wed Jan  1 09:25:20 2020


Gurobi 7.0.2 (linux64) logging started Wed Jan  1 09:25:38 2020


Gurobi 7.0.2 (linux64) logging started Wed Jan  1 09:27:53 2020


Gurobi 7.0.2 (linux64) logging started Wed Jan  1 09:30:08 2020


Gurobi 7.0.2 (linux64) logging started Wed Jan  1 09:35:54 2020


Gurobi 7.0.2 (linux64) logging started Wed Jan  1 09:37:18 2020


Gurobi 7.0.2 (linux64) logging started Wed Jan  1 09:40:38 2020

